NAME : couriers
TYPE : PDPTW
DIMENSION : 11
VEHICLES : 1
CAPACITY : 10000
EDGE_WEIGHT_TYPE : MAN_2D
NODE_COORD_SECTION
1 20 20
2 20 100
3 60 110
4 55 100
5 63 130
6 16 104
7 67 150
8 66 92
9 147 84
10 156 30
11 164 91
PICKUP_AND_DELIVERY_SECTION
1 0 366 1439 0 0 0
2 1 360 1380 10 0 3
3 -1 360 1180 10 2 0
4 1 360 1380 10 0 5
5 -1 560 1380 10 4 0
6 1 420 720 10 0 7
7 -1 360 720 10 6 0
8 1 600 1200 10 0 9
9 -1 800 1400 10 8 0
10 1 480 1380 10 0 11
11 -1 960 1380 10 10 0
DEPOT_SECTION
1
-1
EOF